
Gurobi 13.0.1 (linux64) logging started Sat Mar 21 12:31:57 2026

Set parameter LogFile to value "logs/50B_3F_robust_gamma_0d25_theta_0d05199999999999999_2026-03-21_12h31m41s.log"
Set parameter MIPGap to value 0.005
Set parameter OptimalityTol to value 0.005
Gurobi Optimizer version 13.0.1 build v13.0.1rc0 (linux64 - "openSUSE Tumbleweed")

CPU model: Intel(R) Core(TM) i7-10610U CPU @ 1.80GHz, instruction set [SSE2|AVX|AVX2]
Thread count: 4 physical cores, 8 logical processors, using up to 8 threads

Non-default parameters:
TimeLimit  3600
SoftMemLimit  12
MIPGap  0.005
OptimalityTol  0.005

Optimize a model with 30471 rows, 390571 columns and 1204034 nonzeros (Max)
Model fingerprint: 0x108ff399
Model has 367561 linear objective coefficients
Variable types: 8071 continuous, 382500 integer (382500 binary)
Coefficient statistics:
  Matrix range     [3e-05, 1e+05]
  Objective range  [1e+00, 3e+03]
  Bounds range     [1e+00, 1e+05]
  RHS range        [8e-03, 1e+05]

Presolve removed 15658 rows and 282196 columns
Presolve time: 1.71s
Presolved: 14813 rows, 108375 columns, 345908 nonzeros
Variable types: 3921 continuous, 104454 integer (104454 binary)
Found heuristic solution: objective -3.92155e+08
Deterministic concurrent LP optimizer: primal and dual simplex
Showing primal log only...


Root simplex log...

Iteration    Objective       Primal Inf.    Dual Inf.      Time
   29142    9.1594242e+07   0.000000e+00   2.601860e+09      5s
Concurrent spin time: 1.34s (can be avoided by choosing Method=3)

Solved with dual simplex

Root simplex log...

Iteration    Objective       Primal Inf.    Dual Inf.      Time
   10788    1.0693991e+08   0.000000e+00   0.000000e+00      8s

Root relaxation: objective 1.069399e+08, 10788 iterations, 6.16 seconds (3.22 work units)

    Nodes    |    Current Node    |     Objective Bounds      |     Work
 Expl Unexpl |  Obj  Depth IntInf | Incumbent    BestBd   Gap | It/Node Time

     0     0 1.0694e+08    0 4148 -3.922e+08 1.0694e+08   127%     -   10s
H    0     0                    -1.62043e+08 1.0694e+08   166%     -   12s
H    0     0                    -1.41122e+08 1.0694e+08   176%     -   12s
H    0     0                    -1.04681e+08 1.0694e+08   202%     -   14s
H    0     0                    -7.53976e+07 1.0694e+08   242%     -   17s
H    0     0                    -6.84586e+07 1.0694e+08   256%     -   19s
H    0     0                    -5.45989e+07 1.0694e+08   296%     -   21s
H    0     0                    -5.36424e+07 1.0694e+08   299%     -   25s
H    0     0                    -5.31031e+07 1.0694e+08   301%     -   27s
H    0     0                    -3.14197e+07 1.0694e+08   440%     -   27s
H    0     0                    -1.09940e+07 1.0694e+08  1073%     -   28s
H    0     0                    -1456252.333 1.0694e+08  7444%     -   29s
H    0     0                    4.450481e+07 1.0694e+08   140%     -   37s
H    0     0                    4.461195e+07 1.0694e+08   140%     -   38s
     0     0 1.0694e+08    0 4228 4.4612e+07 1.0694e+08   140%     -   89s
H    0     0                    4.465323e+07 1.0694e+08   139%     -  107s
H    0     0                    4.528425e+07 1.0694e+08   136%     -  112s
H    0     0                    5.618285e+07 1.0694e+08  90.3%     -  123s
H    0     0                    5.633003e+07 1.0694e+08  89.8%     -  130s
H    0     0                    5.633121e+07 1.0694e+08  89.8%     -  135s
H    0     0                    5.638629e+07 1.0694e+08  89.7%     -  147s
     0     0 1.0694e+08    0 4218 5.6386e+07 1.0694e+08  89.7%     -  181s
H    0     0                    5.968566e+07 1.0694e+08  79.2%     -  257s
H    0     0                    7.795721e+07 1.0694e+08  37.2%     -  257s
H    0     0                    7.796338e+07 1.0694e+08  37.2%     -  257s
     0     0 1.0694e+08    0 5051 7.7963e+07 1.0694e+08  37.2%     -  261s
     0     0 1.0694e+08    0 4666 7.7963e+07 1.0694e+08  37.2%     -  277s
     0     0 1.0694e+08    0 4530 7.7963e+07 1.0694e+08  37.2%     -  279s
H    0     0                    8.218751e+07 1.0694e+08  30.1%     -  337s
H    0     0                    8.668750e+07 1.0694e+08  23.4%     -  337s
     0     0 1.0694e+08    0 5570 8.6687e+07 1.0694e+08  23.4%     -  340s
     0     0 1.0694e+08    0 5215 8.6687e+07 1.0694e+08  23.4%     -  360s
H    0     0                    8.675574e+07 1.0694e+08  23.3%     -  416s
H    0     0                    8.808738e+07 1.0694e+08  21.4%     -  416s
H    0     0                    8.952808e+07 1.0694e+08  19.4%     -  416s
H    0     0                    9.005044e+07 1.0694e+08  18.8%     -  416s
H    0     0                    9.005550e+07 1.0694e+08  18.7%     -  416s
H    0     0                    9.090874e+07 1.0694e+08  17.6%     -  416s
     0     0 1.0694e+08    0 5259 9.0909e+07 1.0694e+08  17.6%     -  417s
H    0     0                    9.091858e+07 1.0694e+08  17.6%     -  421s
H    0     0                    9.104240e+07 1.0694e+08  17.5%     -  427s
H    0     0                    9.333543e+07 1.0694e+08  14.6%     -  469s
H    0     0                    9.494360e+07 1.0694e+08  12.6%     -  514s
     0     0 1.0694e+08    0 4981 9.4944e+07 1.0694e+08  12.6%     -  735s
     0     0 1.0694e+08    0 5214 9.4944e+07 1.0694e+08  12.6%     -  773s
     0     0 1.0694e+08    0 5214 9.4944e+07 1.0694e+08  12.6%     -  775s
     0     0 1.0694e+08    0 5054 9.4944e+07 1.0694e+08  12.6%     -  776s
H    0     0                    9.526452e+07 1.0694e+08  12.3%     -  807s
H    0     0                    9.526545e+07 1.0694e+08  12.3%     -  811s
H    0     0                    9.526780e+07 1.0694e+08  12.3%     -  814s
H    0     0                    9.528034e+07 1.0694e+08  12.2%     -  829s
     0     2 1.0694e+08    0 4962 9.5280e+07 1.0694e+08  12.2%     -  836s
     1     4 1.0694e+08    1 5009 9.5280e+07 1.0694e+08  12.2%  4647  873s
     3     8 1.0694e+08    2 4934 9.5280e+07 1.0694e+08  12.2% 18556  937s
     7    12 1.0694e+08    3 4923 9.5280e+07 1.0694e+08  12.2% 19765  972s
    11    16 1.0694e+08    4 4801 9.5280e+07 1.0694e+08  12.2% 16596 1030s
H   12    16                    9.528177e+07 1.0694e+08  12.2% 15213 1030s
H   13    16                    9.539922e+07 1.0694e+08  12.1% 15299 1030s
    15    25 1.0694e+08    5 3830 9.5399e+07 1.0694e+08  12.1% 16525 1204s
    24    27 1.0694e+08    7 3904 9.5399e+07 1.0694e+08  12.1% 28964 1348s
H   26    30                    9.540048e+07 1.0694e+08  12.1% 28607 1523s
    29    92 1.0693e+08    9 3987 9.5400e+07 1.0694e+08  12.1% 26554 1883s
H   91   205                    9.765188e+07 1.0694e+08  9.51% 14051 2687s
H  157   205                    9.820350e+07 1.0694e+08  8.89% 13508 2687s
H  204   223                    9.831377e+07 1.0694e+08  8.77% 14409 3600s
H  206   223                    9.846438e+07 1.0694e+08  8.61% 14377 3600s

Cutting planes:
  Gomory: 15
  MIR: 13
  Flow cover: 91
  Mod-K: 2
  RLT: 1797
  Relax-and-lift: 59

Explored 222 nodes (3282899 simplex iterations) in 3600.13 seconds (3078.01 work units)
Thread count was 8 (of 8 available processors)

Solution count 10: 9.84644e+07 9.83138e+07 9.76519e+07 ... 9.49436e+07

Time limit reached
Best objective 9.846437943420e+07, best bound 1.069386223690e+08, gap 8.6064%
